Version identifier: 12.10.0.0 | 2019-11-26 | 843d4de
CPXPARAM_WorkMem                                 28672
Tried aggregator 2 times.
MIP Presolve eliminated 10 rows and 0 columns.
MIP Presolve added 20 rows and 0 columns.
Aggregator did 30 substitutions.
Reduced MIP has 52 rows, 50 columns, and 208 nonzeros.
Reduced MIP has 50 binaries, 0 generals, 0 SOSs, and 0 indicators.
Presolve time = 0,00 sec. (0,39 ticks)
Found incumbent of value 192,000000 after 0,00 sec. (0,46 ticks)
Probing time = 0,00 sec. (0,15 ticks)
Tried aggregator 1 time.
Detecting symmetries...
Reduced MIP has 52 rows, 50 columns, and 208 nonzeros.
Reduced MIP has 50 binaries, 0 generals, 0 SOSs, and 0 indicators.
Presolve time = 0,00 sec. (0,16 ticks)
Probing time = 0,00 sec. (0,14 ticks)
Clique table members: 204.
MIP emphasis: balance optimality and feasibility.
MIP search method: dynamic search.
Parallel mode: deterministic, using up to 16 threads.
Root relaxation solution time = 0,00 sec. (0,10 ticks)

        Nodes                                         Cuts/
   Node  Left     Objective  IInf  Best Integer    Best Bound    ItCnt     Gap

*     0+    0                          192,0000        0,0000           100,00%
*     0+    0                          159,0000        0,0000           100,00%
      0     0       96,0000    26      159,0000       96,0000       24   39,62%
      0     0      109,6250    26      159,0000     Cuts: 113       56   31,05%
      0     0      112,7215    26      159,0000      Cuts: 25       78   29,11%
*     0+    0                          148,0000      112,7215            23,84%
      0     0      114,6147    26      148,0000      Cuts: 57       84   22,56%
      0     0      115,3185    26      148,0000       Cuts: 4       93   22,08%
      0     0      115,5840    26      148,0000   ZeroHalf: 2      103   21,90%
Detecting symmetries...
      0     0      115,6598    26      148,0000      Cuts: 22      110   21,85%
      0     0      115,6797    26      148,0000   ZeroHalf: 2      114   21,84%
      0     0      115,7713    26      148,0000      Cuts: 18      122   21,78%
      0     0      116,0272    26      148,0000      Cuts: 10      130   21,60%
      0     0      116,0744    26      148,0000   ZeroHalf: 4      136   21,57%
      0     0      116,1385    26      148,0000   ZeroHalf: 3      146   21,53%
      0     0      116,1391    26      148,0000      Cuts: 18      150   21,53%
      0     0      116,1855    26      148,0000   ZeroHalf: 2      162   21,50%
      0     0      116,2361    26      148,0000       Cuts: 7      175   21,46%
      0     0      116,2610    26      148,0000      Cuts: 17      179   21,45%
      0     0      116,2835    26      148,0000   ZeroHalf: 2      185   21,43%
      0     0      116,2863    26      148,0000   ZeroHalf: 2      189   21,43%
      0     0        cutoff            148,0000      148,0000      189    0,00%
Elapsed time = 0,23 sec. (19,68 ticks, tree = 0,01 MB, solutions = 3)

Clique cuts applied:  3
Cover cuts applied:  9
Flow cuts applied:  1
Mixed integer rounding cuts applied:  5
Zero-half cuts applied:  9
Gomory fractional cuts applied:  4

Root node processing (before b&c):
  Real time             =    0,23 sec. (19,69 ticks)
Parallel b&c, 16 threads:
  Real time             =    0,00 sec. (0,00 ticks)
  Sync time (average)   =    0,00 sec.
  Wait time (average)   =    0,00 sec.
                          ------------
Total (root+branch&cut) =    0,23 sec. (19,69 ticks)
